g9 0 1 0 7 20170614 0 4 0 240	# problem alkyl
 14 7 1 0 7	# vars, constraints, objectives, ranges, eqns
 6 1	# nonlinear constraints, objectives
 0 0	# network constraints: nonlinear, linear
 12 2 2	# nonlinear vars in constraints, objectives, both
 0 0 0 1	# linear network variables; functions; arith, flags
 0 0 0 0 0	# discrete variables: binary, integer, nonlinear (b,c,o)
 25 6	# nonzeros in Jacobian, gradients
 0 0	# max name lengths: constraints, variables
 0 0 0 0 0	# common exprs: b,c,o,c1,o1
b
0 0 5
0 0.9 0.95
0 0 2
0 0 1.2
0 0.85 0.93
0 3 12
0 1.2 4
0 1.45 1.62
0 0.99 1.01010101010101
0 0.99 1.01010101010101
0 0.9 1.11111111111111
0 0.99 1.01010101010101
0 0 1.6
0 0 2
x14
0 3.048
1 0.928
2 1.745
3 1.1
4 0.893
5 8
6 3.6
7 1.45
8 1
9 1
10 1
11 1
12 1.2
13 1.974
r
4 0
4 0
4 0
4 0.57425
4 35.82
4 -1.33
4 0
C0
o16
o2
v4
o0
o2
o2
n0.01
v0
v6
v3
C1
o16
o2
v2
v5
C2
o1
o2
v0
v8
o2
v2
o1
o0
n1.12
o2
n0.13167
v5
o2
o2
n0.0067
v5
v5
C3
o0
o2
v1
v9
o2
n0.01
o2
o2
n0.038
v5
v5
C4
o2
v6
v10
C5
o2
v7
v11
C6
n0
O0 0
o2
o2
n-6.3
v0
v1
k13
3
5
8
9
11
14
16
18
19
20
21
22
23
J0 4
0 0
3 0.98
4 0
6 0
J1 4
2 0
5 0
12 10
13 1
J2 4
0 0
2 0
5 0
8 0
J3 4
1 0
4 -0.325
5 -0.010980000000000002
9 0
J4 3
6 0
7 22.2
10 0
J5 3
1 -3
7 0
11 0
J6 3
0 1
2 -0.819672131147541
13 -0.819672131147541
G0 6
0 0
1 0
2 5.04
3 1
12 0.35
13 3.36
